(set-logic QF_S)
(set-option :produce-models true)

(declare-fun s588 () String)
(declare-fun temp2_572_593 () String)
(declare-fun s583 () String)
(declare-fun temp1_572_593 () String)
(declare-fun s593 () String)
(declare-fun s623 () String)
(declare-fun s572 () String)
(declare-fun temp1_572_588 () String)
(declare-fun temp2_572_588 () String)
(declare-fun temp2_572_583 () String)
(declare-fun temp1_572_598 () String)
(declare-fun temp1_572_583 () String)
(declare-fun temp2_572_598 () String)
(declare-fun s598 () String)

(assert (= (str.len temp1_572_593) (str.len s593) ) )
(assert (= s572 s623 ))
(assert (= (str.++ temp1_572_593 temp2_572_593) s572) )
(assert (= (str.len temp1_572_583) (str.len s583) ) )
(assert (= (str.len temp2_572_598) (str.len s598) ) )
(assert (not (= s583 temp1_572_583) ) )
(assert (= (str.++ temp1_572_588 temp2_572_588) s572) )
(assert (= (str.++ temp1_572_583 temp2_572_583) s572) )
(assert (= s623 "..." ))
(assert (not (= s588 temp2_572_588) ) )
(assert (= (str.++ temp1_572_598 temp2_572_598) s572) )
(assert (= (str.len temp2_572_588) (str.len s588) ) )
(assert (not (= s593 temp1_572_593) ) )
(assert (not (= s598 temp2_572_598) ) )


(check-sat)
(get-model)
